============================[ Problem Statistics ]=============================|                                                                             ||  Number of variables:          4242                                         ||  Number of clauses:            9795                                         ||  Parse time:                   0.20 s                                       ||                                                                             |============================[ Search Statistics ]==============================| Conflicts |          ORIGINAL         |          LEARNT          | Progress ||           |    Vars  Clauses Literals |    Limit  Clauses Lit/Cl |          |===============================================================================|       100 |    1591     6000   293401 |     2200      100     53 | 62.501 % |===============================================================================restarts              : 2conflicts             : 116            (350 /sec)decisions             : 286            (0.00 % random) (864 /sec)propagations          : 9884           (29861 /sec)conflict literals     : 6689           (95.75 % deleted)CPU time              : 0.331 sSATISFIABLE